Step 2/5S/8 15 26 30 38/Cluster 2/VRPwTW.dat
# Data VRPwTW

set NODE :=	MoscowDepot	Yaroslavl_LENTA1	Yaroslavl_7Continent	Yaroslavl_ATAK	Yaroslavl_ASHANn	
	Yaroslavl_ASHANp	Yaroslavl_LENTA	Yaroslavl_Giperglobus	Yaroslavl_Magnit	Kostroma_7Continent;

set VEHICLES:= 1;

param L:= 2;
param travel_cost = 75;
param waiting_cost = 31;
param working_limit = 8;


param service_available:
			1	2	3	4	5	6	7	8	9	10	11	12	13:=
MoscowDepot		1	1	1	1	1	1	1	1	1	1	1	1	1
Yaroslavl_LENTA1	1	0	1	0	1	0	0	1	0	1	1	1	0
Yaroslavl_7Continent	0	0	1	0	0	0	0	0	0	1	0	0	0
Yaroslavl_ATAK		0	0	1	0	1	0	0	0	0	1	0	1	0
Yaroslavl_ASHANn	0	0	1	0	0	0	0	0	0	1	0	0	0
Yaroslavl_ASHANp	0	0	1	0	0	0	0	0	0	1	0	0	0
Yaroslavl_LENTA		1	0	1	0	1	0	0	1	0	1	1	1	0
Yaroslavl_Giperglobus	0	0	1	1	0	0	0	0	0	1	1	0	0
Yaroslavl_Magnit	0	0	1	0	1	0	0	0	0	1	0	1	0
Kostroma_7Continent	1	1	1	1	1	0	0	1	1	1	1	1	1;



param timewind:=
[MoscowDepot,*,*]:	  1	2	3	4	5	6	7	8	9	10	11	12	13:=
	 1	0	24	48	72	96	120	144	168	192	216	240	264	288
	 2	24	48	72	96	120	144	168	192	216	240	264	288	312
[Yaroslavl_LENTA1,*,*]:   1   2      3       4        5      6       7        8       9      10      11      12      13 :=

         1    7	 31	55	79	103	127	151	175	199	223	247	271	295
         2    16 40	64	88	112	136	160	184	208	232	256	280	304

[Yaroslavl_7Continent,*,*]:   1   2      3       4        5      6       7        8       9      10      11      12      13 :=

         1    8	32	56	80	104	128	152	176	200	224	248	272	296
         2    17	41	65	89	113	137	161	185	209	233	257	281	305

[Yaroslavl_ATAK,*,*]:   1   2      3       4        5      6       7        8       9      10      11      12      13 :=

         1    7	 31	55	79	103	127	151	175	199	223	247	271	295
         2    16 40	64	88	112	136	160	184	208	232	256	280	304

[Yaroslavl_ASHANn,*,*]:   1   2      3       4        5      6       7        8       9      10      11      12      13 :=

         1    9	33	57	81	105	129	153	177	201	225	249	273	297
         2    11 35	59	83	107	131	155	179	203	227	251	275	299

[Yaroslavl_ASHANp,*,*]:   1   2      3       4        5      6       7        8       9      10      11      12      13 :=

         1    9	33	57	81	105	129	153	177	201	225	249	273	297
         2    11 35	59	83	107	131	155	179	203	227	251	275	299

[Yaroslavl_LENTA,*,*]:   1   2      3       4        5      6       7        8       9      10      11      12      13 :=

        1    7	 31	55	79	103	127	151	175	199	223	247	271	295
        2    16 40	64	88	112	136	160	184	208	232	256	280	304

[Yaroslavl_Giperglobus,*,*]:   1   2      3       4        5      6       7        8       9      10      11      12      13 :=

         1    7	 31	55	79	103	127	151	175	199	223	247	271	295
         2    16 40	64	88	112	136	160	184	208	232	256	280	304

[Yaroslavl_Magnit,*,*]:   1   2      3       4        5      6       7        8       9      10      11      12      13 :=

         1    7	 31	55	79	103	127	151	175	199	223	247	271	295
         2    16 40	64	88	112	136	160	184	208	232	256	280	304

[Kostroma_7Continent,*,*]:   1   2      3       4        5      6       7        8       9      10      11      12      13 :=

         1    7	 31	55	79	103	127	151	175	199	223	247	271	295
         2    16 40	64	88	112	136	160	184	208	232	256	280	304;
        		
set CUSTTIMEWINDOWS[MoscowDepot]:=              1	2	3	4	5	6	7	8	9	10	11	12	13;
set CUSTTIMEWINDOWS[Yaroslavl_LENTA1]:=         1	2	3	4	5	6	7	8	9	10	11	12	13;
set CUSTTIMEWINDOWS[Yaroslavl_7Continent]:=     1	2	3	4	5	6	7	8	9	10	11	12	13;
set CUSTTIMEWINDOWS[Yaroslavl_ATAK]:=           1	2	3	4	5	6	7	8	9	10	11	12	13;
set CUSTTIMEWINDOWS[Yaroslavl_ASHANn]:=         1	2	3	4	5	6	7	8	9	10	11	12	13;
set CUSTTIMEWINDOWS[Yaroslavl_ASHANp]:=         1	2	3	4	5	6	7	8	9	10	11	12	13;
set CUSTTIMEWINDOWS[Yaroslavl_LENTA]:=          1	2	3	4	5	6	7	8	9	10	11	12	13;
set CUSTTIMEWINDOWS[Yaroslavl_Giperglobus]:=    1	2	3	4	5	6	7	8	9	10	11	12	13;
set CUSTTIMEWINDOWS[Yaroslavl_Magnit]:=         1	2	3	4	5	6	7	8	9	10	11	12	13;
set CUSTTIMEWINDOWS[Kostroma_7Continent]:=      1	2	3	4	5	6	7	8	9	10	11	12	13;

param maxduration:=
1 100;

param capacity :=
1 20000;


param travel_time:
		MoscowDepot	Yaroslavl_LENTA1	Yaroslavl_7Continent	Yaroslavl_ATAK	Yaroslavl_ASHANn	
	Yaroslavl_ASHANp	Yaroslavl_LENTA	Yaroslavl_Giperglobus	Yaroslavl_Magnit	Kostroma_7Continent:=
MoscowDepot	.	3.63	3.32	3.5	3.33	3.55	3.63	3.73	3.5	4.22
Yaroslavl_LENTA1	3.68	.	0.27	0.33	0.29	0.07	0.2	0.33	0.33	1.2
Yaroslavl_7Continent	3.43	0.32	.	0.19	0.04	0.24	0.32	0.42	0.2	0.99
Yaroslavl_ATAK	3.61	0.35	0.19	.	0.21	0.26	0.34	0.44	0.07	0.93
Yaroslavl_ASHANn	3.44	0.34	0.04	0.21	.	0.26	0.34	0.44	0.22	0.97
Yaroslavl_ASHANp	3.64	0.08	0.22	0.28	0.24	.	0.16	0.26	0.28	1.15
Yaroslavl_LENTA	3.71	0.23	0.3	0.35	0.32	0.15	.	0.16	0.36	1.22
Yaroslavl_Giperglobus	3.83	0.32	0.41	0.47	0.43	0.26	0.18	.	0.47	1.34
Yaroslavl_Magnit	3.63	0.37	0.21	0.08	0.23	0.28	0.36	0.46	.	0.9
Kostroma_7Continent	4.35	1.22	0.99	0.93	0.97	1.14	1.22	1.32	0.9	.;
	

param:			demand	service_time:=
MoscowDepot		0	0.2
Yaroslavl_LENTA1	857	0.2
Yaroslavl_7Continent	59	0.2
Yaroslavl_ATAK          32	0.2
Yaroslavl_ASHANn	197	0.2
Yaroslavl_ASHANp	112	0.2
Yaroslavl_LENTA		133	0.2
Yaroslavl_Giperglobus	1600	0.2
Yaroslavl_Magnit	2240	0.2
Kostroma_7Continent	78	0.2;